results/gr_files/C5.gr
p tw 41 66
3 4
26 27
35 36
25 41
12 13
21 22
7 35
5 13
22 23
12 22
31 32
8 9
18 32
6 36
40 41
17 18
27 28
25 26
36 37
11 23
13 14
17 33
5 37
10 24
32 33
18 19
4 5
5 6
4 14
29 37
19 31
3 15
14 15
23 24
9 10
1 2
10 11
19 20
2 16
28 29
9 25
37 38
28 38
1 17
6 7
15 16
24 25
27 39
33 34
20 21
29 30
1 41
26 40
20 30
21 29
38 39
39 40
8 34
34 35
2 3
11 12
7 8
9 33
30 31
13 21
16 17
