results/td_files/C5.td
decompose n = 50
decomposeConnected: n = 50
greedy decomposition (fill) obtained with 45 bags and width 6
10 safe separators found 
the decomposition packed into 11 bags, separatorWidth = 3, max bag size = 35
greedy decomposition (defect) obtained with 45 bags and width 6
10 safe separators found 
the decomposition packed into 11 bags, separatorWidth = 3, max bag size = 35
greedy decomposition (degree) obtained with 45 bags and width 6
4 safe separators found 
the decomposition packed into 5 bags, separatorWidth = 3, max bag size = 46
flattening
the decomposition flattened into 45 bags
s td 45 6 50
b 1 1 2 20
b 2 31 49 50
b 3 2 3 19 20
b 4 3 18 19 20
b 5 3 4 18 20
b 6 4 17 18 20
b 7 4 5 17 20
b 8 5 16 17 20
b 9 5 6 12 28 35 41
b 10 6 12 28 30 35 41
b 11 6 10 12 30 35 41
b 12 6 10 30 35 41 46
b 13 6 10 41 44 46
b 14 6 8 10 41 44
b 15 6 7 8 44
b 16 8 10 41 42 44
b 17 8 9 10 42
b 18 8 42 43 44
b 19 6 44 45 46
b 20 10 11 12 30
b 21 12 28 29 30
b 22 5 12 14 28 35 41
b 23 12 13 14 28
b 24 5 14 26 28 35 41
b 25 5 14 21 26 35 41
b 26 5 14 16 21 26
b 27 14 15 16 26
b 28 5 16 20 21
b 29 21 26 35 39 41
b 30 21 23 26 35 39
b 31 21 22 23 39
b 32 23 25 26 35 39
b 33 23 25 35 37 39
b 34 23 24 25 37
b 35 25 35 36 37
b 36 23 37 38 39
b 37 21 39 40 41
b 38 14 26 27 28
b 39 30 31 32 49
b 40 30 32 33 49
b 41 30 33 48 49
b 42 30 33 34 48
b 43 30 34 47 48
b 44 30 34 35 47
b 45 30 35 46 47
1 3
2 39
3 4
4 5
5 6
6 7
7 8
8 28
9 10
9 22
10 11
10 21
11 12
11 20
12 45
12 13
13 14
13 19
14 15
14 16
16 17
16 18
22 23
22 24
24 25
24 38
25 26
25 29
26 27
26 28
29 30
29 37
30 31
30 32
32 33
33 34
33 35
33 36
39 40
40 41
41 42
42 43
43 44
44 45
